p cnf 13 49
1 -2 4 0
1 -2 -7 0
3 -4 6 0
7 -8 -13 0
-1 -3 -9 0
2 7 -11 0
-4 -6 9 0
4 -6 10 0
-2 -5 9 0
-1 -5 12 0
-5 -8 12 0
-1 -10 13 0
-5 9 -11 0
3 6 9 0
-3 6 8 0
-3 -10 -12 0
1 -7 -9 0
-2 7 -12 0
-1 -5 -11 0
6 11 -12 0
3 -10 -11 0
1 -11 12 0
-6 -9 -10 0
-2 -11 12 0
-4 11 12 0
4 6 -8 0
3 -5 6 0
4 -5 8 0
-3 -9 -12 0
1 7 -13 0
2 -8 -10 0
6 12 -13 0
-7 8 -13 0
3 -8 -10 0
7 11 -13 0
3 -4 -13 0
3 5 -10 0
9 10 -11 0
-3 -5 -6 0
8 -10 11 0
2 6 13 0
-1 -7 11 0
3 6 13 0
2 8 -10 0
-2 5 -10 0
-2 10 11 0
-1 11 13 0
-1 12 -13 0
4 8 10 0
